! PW6B95 D3BJ def2-QZVP RIJK def2/JK tightSCF CPCM(THF)
! sp Pal2

* xyz 0 1
  Cl  -1.84404355849360      0.54174251980000      0.00000000000000
  Li  0.26057852629360      0.54174251980000      0.00000000000000
*
