! TPSS D3BJ def2-TZVP RI def2/J CPCM(THF)
! Opt numfreq Pal2

* xyz 0 1
Cl      -1.4567325161      0.5417425198      0.0000000000                 
Li      -0.1267325161      0.5417425198      0.0000000000                 
*
