! TPSS D3BJ def2-TZVP RI def2/J CPCM(THF)
! Opt numfreq Pal2

* xyz -1 1
O       -2.9259660282      1.3263723730      0.0000000000                 
H       -3.2492958399      0.4934487306      0.3776189068                 
*
