! PW6B95 D3BJ def2-QZVP RIJK def2/JK tightSCF CPCM(THF)
! sp Pal4

* xyz -1 1  
O   -2.92556381450032      1.32740850789273     -0.00046974789233
  H   -3.24969805359968      0.49241259570727      0.37808865469233
*
