! TPSS D3BJ def2-TZVP RI def2/J CPCM(THF)
! Opt numfreq Pal4

* xyz 0 1
C         3.08279037123496   -1.68420331416736   -1.04558207329676
C         3.04903683479157   -2.28726528726055   -2.30067089021449
C         3.94232826635219   -3.30576336524257   -2.59744366058609
C         4.86053985579340   -3.74849012963095   -1.66686173986854
C         4.90867934205586   -3.14861424001835   -0.40505706005332
C         4.02116527824321   -2.11747041253913   -0.11102120387458
H         4.04978515268376   -1.64979962710569    0.86055169468442
H         2.33971106200730   -1.97485064645362   -3.04954899234083
H         3.91160524282617   -3.76048270703082   -3.57589421919272
H         5.54994762660378   -4.53334117668894   -1.92833682805349
C         5.86595767728344   -3.54955535101117    0.64308212115278
O         2.26078003819111   -0.68270713539346   -0.63931050750773
C         1.29107627572487   -0.18684846260766   -1.54253953451290
H         1.76073801415025    0.24362928736040   -2.43142922816736
H         0.76223027934930    0.59223534296511   -0.99715977536255
H         0.58597379733724   -0.96884067098813   -1.83736681904132
C         6.62778198781331   -4.79973752571147    0.52170795869563
O         6.13096792127484   -2.77538912373247    1.57301201608193
C         8.06536865593280   -4.33561007636164   -0.04051218554715
O         8.62350888158575   -3.37746623472657    0.70378479686435
Li        7.90598907442785   -2.45071982936320    1.89308809701145
C         8.87094236640319   -5.62264699261726   -0.10722702812243
C         8.89365416560524   -6.38845365767214   -1.26611470426514
C         9.59519251999698   -6.04994998598893    0.99756656388247
C        10.33511616373799   -7.21534736489831    0.94887398815603
C        10.37691284463329   -7.96622514411109   -0.22296143657036
C         9.64196802887707   -7.54931207513094   -1.32968805423135
C        11.14049411014999   -9.24754964539094   -0.23444142203944
O        12.12441064861931   -9.41793942981380   -1.12166520041830
O        10.90008994338022  -10.14427018020447    0.54264939859515
C        12.55741380418116   -8.36983801291129   -1.98343062797573
H        12.03675519139985   -8.43754149387219   -2.93942731713745
H        13.62255269489810   -8.53661926673687   -2.13706409351087
H        12.38916944740797   -7.38869746160733   -1.53870399136575
H         9.63922222154902   -8.14190189112540   -2.23228180253593
H         8.32891783468878   -6.07001491573996   -2.13013559366394
H        10.89152967054269   -7.55043540642417    1.81146201123341
H         9.57570146762554   -5.44602166424618    1.89252514632248
H         6.19543727783055   -5.54465604307062   -0.13713922797854
H         6.83290858810607   -5.21355317399261    1.50835534519055
H         7.88617248348775   -3.98367250502511   -1.08015563121185
*
