! PW6B95 D3BJ def2-QZVP RIJK def2/JK tightSCF CPCM(THF)
! sp Pal8

* xyz 0 1
  C   -5.07844952407575     -0.07627329415885      0.09142718468068
  C   -5.13396059371650     -1.47171514752160     -0.04275350297014
  C   -3.95623835425438     -2.18543973507416     -0.30512571303270
  C   -2.74222762630177     -1.51989146432927     -0.42020651273428
  C   -2.67768689698617     -0.12282299466208     -0.28570042177787
  C   -3.86401499355580      0.58623342794768     -0.03825140749860
  C   -1.39849122951298      0.64856037192123     -0.41999181290736
  H   -3.81356472612589      1.66594053272608      0.05570368184179
  H   -5.98521672480884      0.48249555387712      0.29493026069712
  H   -4.00757214254998     -3.26314901509468     -0.42143924514813
  H   -1.84574633349555     -2.08973409294583     -0.64173396940253
  C   -0.17898763742363     -0.02333711576740     -0.19384889053873
  C   1.10839021141416      0.56070022060472     -0.27246242850522
  C   2.30952477112564     -0.29083565560991      0.00649980683202
  C   2.26011603905550     -1.69392954505042     -0.07522786420480
  C   3.40392656865780     -2.44999850813269      0.19209677493177
  C   4.60239942267360     -1.81318127146248      0.54871128230431
  C   4.64622688291306     -0.42493132058662      0.62549546434627
  C   3.51178461971038      0.33989624416658      0.34992850154600
  H   3.54035999166588      1.42245299598135      0.40596138320340
  H   1.34149602497531     -2.18518407231197     -0.37031668426949
  H   5.48007824145152     -2.41831761778888      0.75603074544620
  H   5.57568027558636      0.06414847702250      0.90381557073769
  H   -0.23632878801319     -1.06042683868337      0.10808475241509
  O   1.32506698700067      1.79104461840886     -0.54921667870684
  O   -1.51099132265527      1.88995755982771     -0.71556464354982
  O   3.45064673770405     -3.81709139278245      0.12586233967015
  C   2.23384185533007     -4.50168172697765     -0.21937387969253
  H   1.44651472615401     -4.28524776902974      0.51174793146119
  H   2.48292575800338     -5.56248163656822     -0.19818156021522
  H   1.89818512727694     -4.21493830719884     -1.22258203737573
  Li  -0.03979596429930      2.92686200149540     -0.88629104465691
  C   -6.40527113747788     -2.23207541127309      0.07742472403465
  O   -7.46467391870574     -1.43027498449222      0.32860544450661
  O   -6.50093873966361     -3.44627056520853     -0.03495305899136
  C   -8.74021812257645     -2.11306188282512      0.45819708645356
  H   -8.97533456265619     -2.63853718290656     -0.46990219908174
  H   -9.46329776799355     -1.32305783252879      0.65500648164905
  H   -8.69829716774892     -2.82233070120636      1.28759404470688
*
