! TPSS D3BJ def2-TZVP RI def2/J CPCM(THF)
! Opt numfreq Pal4

* xyz 0 1
C       -3.2022730000      1.5052770000      0.0051830000                 
C       -3.2964020000      0.1112800000     -0.0174160000                 
C       -2.1114920000     -0.6373780000     -0.0327720000                 
C       -0.8653850000     -0.0238590000     -0.0260410000                 
C       -0.7654660000      1.3827460000     -0.0031400000                 
C       -1.9472900000      2.1278290000      0.0119180000                 
H       -1.8946770000      3.2112250000      0.0294590000                 
H       -4.2560230000     -0.3927430000     -0.0233110000                 
H       -2.1763500000     -1.7224240000     -0.0505910000                 
H        0.0280800000     -0.6384790000     -0.0389410000                 
C        0.5486250000      2.1133250000      0.0054310000                 
C        1.7547031611      1.7644291531      0.5356692485                 
H        1.8823759380      0.8879198131      1.1590026857                 
H        2.6304679299      2.3757264454      0.3376010373                 
O        0.3800955948      3.1777586923     -0.7530390127                 
Li       0.0986519899      4.5055120847     -1.7064314201                 
O       -4.2849070000      2.3517400000      0.0219120000                 
C       -5.5867330000      1.7451140000      0.0156910000                 
H       -5.7317120000      1.1430180000     -0.8888870000                 
H       -6.2949750000      2.5739020000      0.0289480000                 
H       -5.7283660000      1.1173760000      0.9032520000                 
*
