! PW6B95 D3BJ def2-QZVP RIJK def2/JK tightSCF CPCM(THF)
! sp Pal2

* xyz 0 1 
  O   -2.12192594251402     -9.02753288141917     -2.22153038725351
  H   -1.15231253859335     -8.98939778919052     -2.24872663008035
  H   -2.40100448709264     -8.27050555889031     -2.76140842836614
*
