! TPSS D3BJ def2-TZVP RI def2/J CPCM(THF)
! Opt numfreq Pal2

* xyz 0 1
O       -2.1073043855     -9.0106715152     -2.2335551598                 
H       -1.1373043855     -9.0106715152     -2.2335551598                 
H       -2.4306341972     -8.2660931991     -2.7645551261                 
*
