! PW6B95 D3BJ def2-QZVP RIJK def2/JK tightSCF CPCM(THF)
! sp Pal4

* xyz 0 1  
 C   -2.59954856745799      2.34536796216961      0.05607051934307
  C   -2.77618680980293      1.11091908234782      0.70017579268761
  C   -1.67644729274962      0.27071492982147      0.89345763215790
  C   -0.40702371989695      0.64051687631778      0.46254361301018
  C   -0.23187758343005      1.87650658851799     -0.18594099287713
  C   -1.32907161442793      2.72047439228295     -0.38787962964394
  O   -3.60467847605190      3.23928725254928     -0.18045796980310
  C   -4.92719722008809      2.88116760611120      0.26166102490209
  H   -5.26746334135929      1.96664832562226     -0.23668130563110
  H   -5.56227212244801      3.71990731857006     -0.02219679559950
  H   -4.94834168014938      2.74486452617761      1.34862155306298
  C   1.09870368638407      2.32009552255250     -0.68380111294709
  H   -1.19226129634865      3.67255591308860     -0.89033142330580
  H   -3.75396621814185      0.80017948372149      1.05023617979236
  H   -1.82301608435010     -0.68360283044775      1.39083428268684
  H   0.43246196398659     -0.02656629573850      0.62186530882203
  O   1.21605395962883      3.37444892909447     -1.31773307025025
  C   2.31138182701574      1.44749565011927     -0.40651341085115
  C   3.64126673900434      2.15246590988581     -0.73148317455556
  O   3.70326685385286      2.51847042262068     -2.11595690789838
  C   4.80280453498913      1.24481989619024     -0.40127224971876
  H   3.71135502489978      3.05553706028384     -0.10682907236336
  C   5.42545975430921      0.47364264323163     -1.38899802662277
  H   2.90689321634736      3.07490452928578     -2.24318250157354
  C   5.24069132698994      1.13757699248126      0.92578262765706
  C   6.46498546359291     -0.39200165349672     -1.05848015333480
  C   6.89626847153537     -0.50160800189823      0.27100523197919
  C   6.27449914553534      0.27248012586005      1.26176787725332
  H   4.76945314714798      1.74145924449853      1.69762694783861
  H   5.09431035895668      0.56035712917165     -2.41823126869638
  H   6.94345943030178     -0.98415352276848     -1.83076868489395
  H   6.61739795764822      0.19035531063850      2.28824168507238
  C   7.99889715311404     -1.40915716582917      0.67648294046353
  O   8.51471854264170     -2.09746059409849     -0.36817691840381
  C   9.59996789681317     -3.00326538952898     -0.03654548098938
  H   9.25090390052944     -3.75840799555884      0.67117535024997
  H   10.43169428141506     -2.44372462742325      0.39700833784898
  H   9.88640017767045     -3.45819401970650     -0.98360293360203
  O   8.40969849608058     -1.53604411258607      1.82216275312859
  H   2.22672429045669      0.53115307385488     -1.00692889437713
  H   2.30405011615530      1.13522055161359      0.64372228088149
*
