! TPSS D3BJ def2-TZVP RI def2/J CPCM(THF)
! Opt numfreq Pal2

* xyz 0 1
H       -1.5674431400      2.1808648846      0.0000000000                 
Cl      -0.7354154498      1.1744436751      0.0000000000                 
*
