! PW6B95 D3BJ def2-QZVP RIJK def2/JK tightSCF CPCM(THF)
! sp Pal2

* xyz 0 1
  H   -1.56206193365724      2.17435577407419      0.00000000000000
  Cl  -0.74079665614276      1.18095278562581      0.00000000000000
*
