! TPSS D3BJ def2-TZVP RI def2/J CPCM(THF)
! Opt numfreq Pal8

* xyz 0 1
  C   -2.98364437959139      2.91302546439950     -0.41648296886261
  C   -3.78084083191271      1.62020807643260     -0.92198214130048
  C   -2.73595278261430      0.84100681428933     -0.41852984806793
  C   -1.88569423527140      1.33336327500928      0.56601290703746
  C   -2.09385421942128      2.62746416726796      1.07475398971946
  C   -3.14497422834089      3.40788705864620      0.58547403438278
  O   -4.97014202287037      3.75720213541256     -0.84535438770212
  C   -5.84307391979623      3.27700651707154     -1.88751168271717
  H   -5.27193793818071      3.05191411824163     -2.79462868792760
  H   -6.54054894843627      4.09250170746751     -2.07597134827521
  H   -6.38612228415103      2.38572987667716     -1.55542765094981
  C   -1.20999267160027      3.21444685280213      2.12238054327142
  C   0.17107436294786      2.61929650174585      2.32174127104485
  C   1.06568679231426      2.78079368962211      1.05763474083504
  H   0.09270751285891      1.55156469134834      2.55803371141054
  H   0.62936354207097      3.12829700350138      3.17389281596524
  H   -3.29834028533016      4.40987325806102      0.97341265045963
  H   -4.42175506689022      1.21967188428884     -1.69868290664809
  H   -2.58937201004153     -0.16157896471721     -0.80941322681922
  H   -1.08303133585186      0.71073060689528      0.94553840956066
  C   1.05476302834997      4.22203709846355      0.58704210412369
  O   -1.57257617412926      4.19037356642074      2.78056037086793
  C   2.47013976854753      2.25451303983235      1.37219873015838
  H   0.64337418904555      2.17095942239717      0.25481835043833
  C   3.36220716223960      2.14408278922487      0.14673704454062
  H   2.39621179795859      1.25286595943282      1.81807424059608
  H   2.96292619681608      2.87796479380419      2.12682951370453
  C   1.68500780434285      5.23504074800500      1.32206092047195
  C   0.34715737514399      4.57289836083923     -0.56981229814448
  C   0.26614456006167      5.89753895194020     -0.98253752119987
  C   0.89808815055788      6.90629578468303     -0.24248875438690
  C   1.61287303215993      6.56320024239637      0.91515899374120
  C   0.77981427489404      8.30745008605276     -0.71613995829407
  O   0.16767362197013      8.65394927600811     -1.71922781662544
  O   1.42548488882362      9.18336843300298      0.08636760207487
  C   1.34592392655537     10.57735165810801     -0.31896014217646
  H   1.91200428923372     11.12084249390906      0.43575960188703
  H   0.30276512188860     10.89973026483771     -0.33380907985693
  H   1.79134714138547     10.70162725631766     -1.30811119303891
  C   4.79527375696700      1.77613771387372      0.35172929413480
  O   2.91165517300883      2.33215455379482     -0.98241381650441
  C   5.31827322237861      1.49998681593057      1.62770998086911
  C   5.62460423069644      1.69675649735356     -0.77147075439982
  C   6.65786651059027      1.14736057562394      1.75636163205385
  C   7.49253413536486      1.06809273218939      0.63862333914837
  C   6.97006272263741      1.34610781934081     -0.63329833680681
  H   5.21947129517334      1.90920773462348     -1.75578878056655
  H   4.69039872094216      1.55350270384477      2.50978459928481
  H   7.06875371602865      0.92910171589985      2.73772960582572
  H   8.53320505857468      0.79331794574854      0.76510874075590
  O   7.70050162868908      1.29802065700106     -1.78839996651287
  C   9.09101074539990      0.93386973809167     -1.67554971203644
  H   9.62984701335404      1.65711930529684     -1.05404847866404
  H   9.47663620823890      0.95431669512750     -2.69432680721068
  H   9.19298731898857     -0.07187610001581     -1.25393328606316
  H   -0.14360491863594      3.79552392897040     -1.14847344299974
  H   -0.28493091428908      6.16506062618701     -1.87844718166760
  H   2.23369787447168      4.98921746404014      2.22722680989887
  H   2.10502129568388      7.33572591693897      1.49549562816230
*
