! TPSS D3BJ def2-TZVP RI def2/J CPCM(THF)
! Opt numfreq Pal4

* xyz 0 1
C        -3.73241239236612    1.36171476055349   -0.07853698919956
C        -3.92582414540343   -0.01803246669365   -0.03905576916665
C        -2.81972509364954   -0.86537484892012    0.02508240192226
C        -1.54209423405408   -0.34808919097129    0.05999237677056
C        -1.33954595432711    1.03376920069212    0.02590235886537
C        -2.45304934126072    1.87653425230700   -0.04873963018070
H        -2.29596754896243    2.94323071929863   -0.07737617105221
H        -4.58535970757819    2.01904005852678   -0.13011596253373
H        -2.98806134814568   -1.93111910522161    0.05692203459789
H        -0.70715792070665   -1.02431141815305    0.13689699041920
C        -0.00101450575256    1.64158643643218    0.10341859421401
C         1.15863722727974    0.92951815761154   -0.04856699041970
O         0.00131821775121    2.94335341847041    0.35014255391799
C         2.44648246401535    1.55076658384066    0.10766688613252
C         3.67097373202286    0.71465526424652    0.04266042127313
H         1.11258639430153   -0.11257012421165   -0.29433549050833
H         0.95559922408192    3.24514239655340    0.38911835192522
O         2.55514578546289    2.77565958371431    0.30984159496986
C         3.66433627577799   -0.67669773080203    0.09273722632091
C         4.89029368194806    1.39296824677211   -0.03382913881302
C         6.08913418258696    0.69714147371838   -0.06428298308216
C         6.06603291924423   -0.70002424124734   -0.02294158534977
H         4.85945340272171    2.47102644132399   -0.06283756315786
C         4.86285041583242   -1.37056711493184    0.05838156129829
H         7.00472619000887   -1.23026788911260   -0.04798830918486
H         4.85738649322227   -2.44896936865473    0.09934862238593
H         2.74403121740821   -1.22874376121794    0.18185813716194
C        -5.27788729444493   -0.62298684385964   -0.04316044193192
O        -5.48818139991977   -1.81765208011006   -0.02256816023445
O        -6.25539364531448    0.28644730050672   -0.06425782179641
C        -7.59210609758124   -0.20955643455524   -0.05242516090353
H        -7.76820274882489   -0.83883755966907   -0.92682133363852
H        -8.23391514028727    0.66692413385318   -0.06969240035765
H        -7.76547420476120   -0.80112882844030    0.84858618045725
O         7.32101633013075    1.26935728696491   -0.13195688825524
C         7.41528124535232    2.67971640504820   -0.15268580278655
H         8.48103950052084    2.89721974795541   -0.19121190991730
H         6.98334842923441    3.12021782700979    0.75056379350390
H         6.92373369633544    3.09821147197269   -1.03573363696760
*
