! TPSS D3BJ def2-TZVP RI def2/J CPCM(THF)
! Opt numfreq Pal4

* xyz 0 1
N        -3.58344417612903   -1.94365772281645   -0.87472842583596
C        -2.19198541082266   -2.36439824826760   -0.83348748322500
C        -4.29137145135694   -1.90318977570130    0.39900998479212
H        -4.08612282763850   -2.51964640174613   -1.54171858668130
C        -1.49030388531024   -1.84615873261574   -2.08951920949160
C        -2.01930999653330   -3.88584813993939   -0.71631541342218
H        -1.73469018795790   -1.89014258151727    0.04280256923498
C        -4.05977917017557   -0.53951769390989    1.05607561415844
H        -3.92558047169161   -2.68668956494319    1.08969812730884
C        -5.78327002415554   -2.12849740937742    0.16635184035320
H        -1.91916417080276   -2.30659864891972   -2.97677978822599
H        -0.42878910057077   -2.07784774993851   -2.05402106601857
H        -1.61645081497968   -0.76999895868655   -2.16525471128215
H        -2.42898164847436   -4.37815606856237   -1.59723707741625
H        -2.53467720540082   -4.26719215618859    0.16353625759345
H        -0.96646835070436   -4.14364276486168   -0.63321048625818
H        -2.99839771052668   -0.36469060945895    1.21156524947049
H        -4.56373177196934   -0.49206598467346    2.01832158256939
H        -4.44526839031720    0.24557163610310    0.41126926312305
H        -6.16518366815328   -1.38327225712887   -0.52723784726324
H        -6.32741737389968   -2.04600263746027    1.10383238846133
H        -5.96349282333049   -3.11859334519011   -0.24905049994512
*
