! TPSS D3BJ def2-TZVP RI def2/J CPCM(THF)
! Opt numfreq Pal2

* xyz 0 1
O       -0.3644166819      1.2309282245     -0.2000815217                 
H        0.6146330111      1.3455669964     -0.1056197479                 
Li      -1.0950552472      2.5505350261      0.8872678738                 
*
