! PW6B95 D3BJ def2-QZVP RIJK def2/JK tightSCF CPCM(THF)
! sp Pal2

* xyz 0 1 
 O   -0.10191081837847      1.60556314875622      0.10861577955011
  H   0.55021087432758      1.06178988495744     -0.33945066646024
  Li  -1.29313897394911      2.45967721328634      0.81240149111013
*
