! TPSS D3BJ def2-TZVP RI def2/J CPCM(THF)
! Opt numfreq Pal8

* xyz 0 1
C        -2.65053088809814   -0.37637556645990    0.51839012630959
C        -2.26911470275150   -1.70062327148106    0.29858264846829
C        -0.94495937239237   -2.00481384026082   -0.01792251089273
C        -0.01263734654152   -0.99138997063801   -0.11635776060713
C        -0.39085193067083    0.33557826645437    0.10007627120831
C        -1.71786614479268    0.63478949717502    0.42111625369737
H        -1.99067135096991    1.66589181665878    0.58728707700073
H        -0.66212854168963   -3.03128311651749   -0.18629503539515
H         1.01325035287807   -1.22051976000627   -0.36290399818558
C         0.59820940436621    1.41398353044459   -0.01307101208456
H         1.61930504506623    1.06502428494643   -0.25945877848321
O         0.36944119712716    2.59073012714222    0.13817123787033
H        -3.68082256211529   -0.16706824430873    0.76275272199669
C        -3.30736203586490   -2.75842776412496    0.40158873835877
O        -2.81061936485280   -3.98747831695468    0.25747395917713
C        -3.73700789863821   -5.06941264439183    0.33666219035764
H        -3.16023523850131   -5.96826579745684    0.13810154926425
H        -4.52888147826397   -4.94186767888497   -0.40335666631329
H        -4.18561381574535   -5.10748004358220    1.33092641429730
O        -4.48355404274924   -2.53661387665367    0.59265772215526
*
